100,20
140,100
106,94
90,100
65,24
130,130
20,100
93,106
26,66
100,140
71,129
100,110
110,100
100,90
93,93
130,70
100,60
66,174
134,23
70,70
174,136
175,64
160,40
40,40
180,100
106,106
60,100
135,173
24,134
40,160
100,180
160,160